
===== New CPLEX run =====
Instance: /home/yorig/tuner/mpils-tests/instances/miplib/easy/mas74.mps
Config: /scratch/yorig/mpils-results-grid-ticks-10000-divide/easy/16proc/seed-4/5_mas74_seed-4_20260429_043455/expansion/config_param_CPXPARAM_MIP_Strategy_VariableSelect_4_iter_1.prm
========================

Selected objective sense:  MINIMIZE
Selected objective  name:  obj
Selected RHS        name:  rhs
Selected bound      name:  bnd
Version identifier: 22.1.2.0 | 2024-11-26 | 0edbb82fd
CPXPARAM_Threads                                 8
CPXPARAM_Parallel                                1
CPXPARAM_MIP_Cuts_Cliques                        1
CPXPARAM_MIP_Strategy_VariableSelect             4
CPXPARAM_MIP_Cuts_FlowCovers                     1
CPXPARAM_MIP_Cuts_Implied                        -1
CPXPARAM_MIP_Cuts_GUBCovers                      -1
CPXPARAM_MIP_Limits_GomoryCand                   10
CPXPARAM_MIP_Cuts_Gomory                         2
CPXPARAM_MIP_Cuts_PathCut                        2
CPXPARAM_MIP_Cuts_MIRCut                         -1
CPXPARAM_MIP_Cuts_Disjunctive                    2
CPXPARAM_Emphasis_MIP                            3
CPXPARAM_DetTimeLimit                            10000
Found incumbent of value 157344.610330 after 0.00 sec. (0.02 ticks)
Tried aggregator 1 time.
MIP Presolve eliminated 0 rows and 3 columns.
Reduced MIP has 13 rows, 148 columns, and 1682 nonzeros.
Reduced MIP has 145 binaries, 2 generals, 0 SOSs, and 0 indicators.
Presolve time = 0.00 sec. (0.84 ticks)
Probing time = 0.00 sec. (0.09 ticks)
Tried aggregator 1 time.
Detecting symmetries...
Reduced MIP has 13 rows, 148 columns, and 1682 nonzeros.
Reduced MIP has 145 binaries, 2 generals, 0 SOSs, and 0 indicators.
Presolve time = 0.00 sec. (0.79 ticks)
Probing time = 0.00 sec. (0.09 ticks)
MIP emphasis: best bound.
MIP search method: dynamic search.
Parallel mode: deterministic, using up to 8 threads.
Root relaxation solution time = 0.02 sec. (0.72 ticks)

        Nodes                                         Cuts/
   Node  Left     Objective  IInf  Best Integer    Best Bound    ItCnt     Gap

*     0+    0                       157344.6103        0.0000           100.00%
*     0+    0                        51840.4943        0.0000           100.00%
      0     0    10482.7953    12    51840.4943    10482.7953       43   79.78%
*     0+    0                        19197.4680    10482.7953            45.39%
      0     0    10526.7004    13    19197.4680      Fract: 1       51   45.17%
*     0+    0                        14901.6028    10526.7004            29.36%
      0     0    10549.2365    14    14901.6028      Fract: 1       59   29.21%
*     0+    0                        14692.2744    10549.2365            28.20%
      0     0    10553.2582    15    14692.2744      Fract: 1       65   28.17%
      0     0    10557.5476    16    14692.2744      Fract: 1       71   28.14%
      0     0    10560.8992    16    14692.2744      Fract: 1       79   28.12%
Detecting symmetries...
      0     0    10564.8486    16    14692.2744   LiftProj: 1       87   28.09%
*     0+    0                        13886.0272    10564.8486            23.92%
      0     0    10567.6171    17    13886.0272   LiftProj: 1       92   23.90%
      0     0    10568.6950    18    13886.0272   LiftProj: 1       97   23.89%
      0     0    10569.2729    19    13886.0272   LiftProj: 1      100   23.89%
      0     0    10569.3085    20    13886.0272   LiftProj: 1      102   23.89%
*     0+    0                        12915.1000    10569.3085            18.16%
*     0+    0                        12715.8924    10587.6058            16.74%
      0     0  -1.00000e+75     0    12715.8924    10587.6058      102   16.74%
Detecting symmetries...
      0     2    10569.3085    20    12715.8924    10587.6058      102   16.74%
Elapsed time = 0.78 sec. (55.02 ticks, tree = 0.02 MB, solutions = 8)
*    40+    3                        12640.3713    10587.6058            16.24%

Performing restart 1

Repeating presolve.
Tried aggregator 1 time.
MIP Presolve eliminated 0 rows and 30 columns.
Reduced MIP has 13 rows, 118 columns, and 1295 nonzeros.
Reduced MIP has 116 binaries, 1 generals, 0 SOSs, and 0 indicators.
Presolve time = 0.00 sec. (0.46 ticks)
Tried aggregator 1 time.
Reduced MIP has 13 rows, 118 columns, and 1295 nonzeros.
Reduced MIP has 116 binaries, 1 generals, 0 SOSs, and 0 indicators.
Presolve time = 0.00 sec. (0.60 ticks)
Represolve time = 0.00 sec. (2.71 ticks)
   2095     0    10571.2621    22    12640.3713   LiftProj: 1    12660   14.99%
*  2103+    7                        12536.2311    10745.7109            14.28%
   5892  3232    10867.4918    12    12536.2311    10798.3256    33968   13.86%
*  6460+ 3614                        12464.1000    10808.2206            13.29%
*  6701+ 3818                        12356.3713    10814.5149            12.48%
*  7393+ 4595                        12323.6944    10820.5371            12.20%
  13871 10935    10937.2783    13    12323.6944    10876.7456    82986   11.74%
  23519 19344    10991.3594    12    12323.6944    10908.8851   135835   11.48%
* 29973+24678                        11801.1857    10922.1583             7.45%
  32903 26413    11062.4429    12    11801.1857    10928.0830   179776    7.40%
  39304 36331    11479.6744     9    11801.1857    10947.2702   241196    7.24%
  44573 41506    11066.1859    11    11801.1857    10947.2702   273600    7.24%
  49763 46643    11067.1570    12    11801.1857    10947.2702   305207    7.24%
  55007 51848    11061.1624    11    11801.1857    10947.2702   337523    7.24%
  60168 56754    11134.6820    12    11801.1857    10947.2702   367923    7.24%

Performing restart 2

Repeating presolve.
Tried aggregator 1 time.
MIP Presolve eliminated 0 rows and 22 columns.
Reduced MIP has 13 rows, 96 columns, and 1017 nonzeros.
Reduced MIP has 94 binaries, 1 generals, 0 SOSs, and 0 indicators.
Presolve time = 0.00 sec. (0.35 ticks)
Tried aggregator 1 time.
Reduced MIP has 13 rows, 96 columns, and 1017 nonzeros.
Reduced MIP has 94 binaries, 1 generals, 0 SOSs, and 0 indicators.
Presolve time = 0.00 sec. (0.45 ticks)
Represolve time = 0.02 sec. (3.04 ticks)
  94601 25958    11031.8203    12    11801.1857    10969.5267   584202    7.05%
Elapsed time = 11.71 sec. (3154.72 ticks, tree = 5.72 MB, solutions = 14)
 136253 66772    11120.9410    12    11801.1857    11043.7215   842063    6.42%
 178355 109908    11123.8846    12    11801.1857    11091.2827  1112720    6.02%
 220877 151673    11161.3538    12    11801.1857    11124.3020  1376408    5.74%
 263548 193683    11208.4685    11    11801.1857    11149.8927  1644080    5.52%
 306058 236647    11194.4414    12    11801.1857    11169.6500  1913882    5.35%
 348234 278069    11216.2224    12    11801.1857    11186.5806  2174995    5.21%
 391014 320180    11250.9779    10    11801.1857    11200.9121  2438957    5.09%

Clique cuts applied:  0
Cover cuts applied:  79
Flow cuts applied:  0
Flow path cuts applied:  0
Lift and project cuts applied:  7
Gomory fractional cuts applied:  3
Disjunctive cuts applied:  0
Cone linearizations applied:  0

Root node processing (before b&c):
  Real time             =    0.67 sec. (54.96 ticks)
Parallel b&c, 8 threads:
  Real time             =   29.28 sec. (9945.36 ticks)
  Sync time (average)   =   13.02 sec.
  Wait time (average)   =    0.24 sec.
                          ------------
Total (root+branch&cut) =   29.95 sec. (10000.32 ticks)
Gap: 5.05%
Upper bound: 11801.2
Lower bound: 11204.7
End of CPLEX run. Time: 29.9761 seconds
